%chk=test.chk
# opt hf/3-21g 

this is a test

0 1
 C                  0.15954711   -2.07684419    0.00263100
 C                  1.55470711   -2.07684419    0.00263100
 C                  2.25224511   -0.86909319    0.00263100
 C                  1.55459111    0.33941581    0.00143200
 C                  0.15976611    0.33933781    0.00095300
 C                 -0.53783489   -0.86886819    0.00194900
 H                 -0.39021189   -3.02916119    0.00308100
 H                  2.10421511   -3.02935719    0.00394600
 H                  3.35192511   -0.86901319    0.00326500
 H                  2.10479111    1.29155881    0.00137300
 H                 -0.39035589    1.29161881    0.00000000
 H                 -1.63743889   -0.86868519    0.00176900

